NAME           NO_TITLE_DETEQ
ROWS
 N       OBJ
 G  ROW1_SC000000
 E  ROW2_SC000000
 E  ROW3_SC000000
 G  ROW4_SC000000
 E  ROW5_SC000000
 E  PROFIT_SC000000
 G  ROW1_SC000001
 E  ROW2_SC000001
 E  ROW3_SC000001
 G  ROW4_SC000001
 E  ROW5_SC000001
 E  PROFIT_SC000001
 G  ROW1_SC000002
 E  ROW2_SC000002
 E  ROW3_SC000002
 G  ROW4_SC000002
 E  ROW5_SC000002
 E  PROFIT_SC000002
 G  ROW1_SC000003
 E  ROW2_SC000003
 E  ROW3_SC000003
 G  ROW4_SC000003
 E  ROW5_SC000003
 E  PROFIT_SC000003
 G  ROW1_SC000004
 E  ROW2_SC000004
 E  ROW3_SC000004
 G  ROW4_SC000004
 E  ROW5_SC000004
 E  PROFIT_SC000004
 G  ROW1_SC000005
 E  ROW2_SC000005
 E  ROW3_SC000005
 G  ROW4_SC000005
 E  ROW5_SC000005
 E  PROFIT_SC000005
 E  NAC00000000
 E  NAC00000001
 E  NAC00000002
 E  NAC00000003
 E  NAC00000004
COLUMNS
    X_SC000000  ROW1_SC000000             1   ROW2_SC000000             1
    X_SC000000  ROW3_SC000000             1   ROW4_SC000000             1
    X_SC000000  PROFIT_SC000000           -30   NAC00000000             1
    X_SC000000  NAC00000001             1   NAC00000002             1
    X_SC000000  NAC00000003             1   NAC00000004             1
    I_SC000000  ROW2_SC000000            -1   ROW3_SC000000            -1
    I_SC000000  ROW5_SC000000            -1   PROFIT_SC000000           -10
    L_SC000000  ROW2_SC000000             1   PROFIT_SC000000            -5
    S_SC000000  ROW3_SC000000            -1   ROW4_SC000000            -1
    S_SC000000  PROFIT_SC000000            60
    Y_SC000000  ROW5_SC000000             1   PROFIT_SC000000             9
    E_SC000000  ROW5_SC000000             1   PROFIT_SC000000           -10
    Z_SC000000       OBJ         -0.12
    Z_SC000000  PROFIT_SC000000            -1
    X_SC000001  ROW1_SC000001             1   ROW2_SC000001             1
    X_SC000001  ROW3_SC000001             1   ROW4_SC000001             1
    X_SC000001  PROFIT_SC000001           -30   NAC00000000            -1
    I_SC000001  ROW2_SC000001            -1   ROW3_SC000001            -1
    I_SC000001  ROW5_SC000001            -1   PROFIT_SC000001           -10
    L_SC000001  ROW2_SC000001             1   PROFIT_SC000001            -5
    S_SC000001  ROW3_SC000001            -1   ROW4_SC000001            -1
    S_SC000001  PROFIT_SC000001            60
    Y_SC000001  ROW5_SC000001             1   PROFIT_SC000001           -15
    E_SC000001  ROW5_SC000001             1   PROFIT_SC000001           -10
    Z_SC000001       OBJ         -0.28
    Z_SC000001  PROFIT_SC000001            -1
    X_SC000002  ROW1_SC000002             1   ROW2_SC000002             1
    X_SC000002  ROW3_SC000002             1   ROW4_SC000002             1
    X_SC000002  PROFIT_SC000002           -30   NAC00000001            -1
    I_SC000002  ROW2_SC000002            -1   ROW3_SC000002            -1
    I_SC000002  ROW5_SC000002            -1   PROFIT_SC000002           -10
    L_SC000002  ROW2_SC000002             1   PROFIT_SC000002            -5
    S_SC000002  ROW3_SC000002            -1   ROW4_SC000002            -1
    S_SC000002  PROFIT_SC000002            60
    Y_SC000002  ROW5_SC000002             1   PROFIT_SC000002             9
    E_SC000002  ROW5_SC000002             1   PROFIT_SC000002           -10
    Z_SC000002       OBJ         -0.15
    Z_SC000002  PROFIT_SC000002            -1
    X_SC000003  ROW1_SC000003             1   ROW2_SC000003             1
    X_SC000003  ROW3_SC000003             1   ROW4_SC000003             1
    X_SC000003  PROFIT_SC000003           -30   NAC00000002            -1
    I_SC000003  ROW2_SC000003            -1   ROW3_SC000003            -1
    I_SC000003  ROW5_SC000003            -1   PROFIT_SC000003           -10
    L_SC000003  ROW2_SC000003             1   PROFIT_SC000003            -5
    S_SC000003  ROW3_SC000003            -1   ROW4_SC000003            -1
    S_SC000003  PROFIT_SC000003            60
    Y_SC000003  ROW5_SC000003             1   PROFIT_SC000003           -15
    E_SC000003  ROW5_SC000003             1   PROFIT_SC000003           -10
    Z_SC000003       OBJ         -0.15
    Z_SC000003  PROFIT_SC000003            -1
    X_SC000004  ROW1_SC000004             1   ROW2_SC000004             1
    X_SC000004  ROW3_SC000004             1   ROW4_SC000004             1
    X_SC000004  PROFIT_SC000004           -30   NAC00000003            -1
    I_SC000004  ROW2_SC000004            -1   ROW3_SC000004            -1
    I_SC000004  ROW5_SC000004            -1   PROFIT_SC000004           -10
    L_SC000004  ROW2_SC000004             1   PROFIT_SC000004            -5
    S_SC000004  ROW3_SC000004            -1   ROW4_SC000004            -1
    S_SC000004  PROFIT_SC000004            60
    Y_SC000004  ROW5_SC000004             1   PROFIT_SC000004             9
    E_SC000004  ROW5_SC000004             1   PROFIT_SC000004           -10
    Z_SC000004       OBJ         -0.27
    Z_SC000004  PROFIT_SC000004            -1
    X_SC000005  ROW1_SC000005             1   ROW2_SC000005             1
    X_SC000005  ROW3_SC000005             1   ROW4_SC000005             1
    X_SC000005  PROFIT_SC000005           -30   NAC00000004            -1
    I_SC000005  ROW2_SC000005            -1   ROW3_SC000005            -1
    I_SC000005  ROW5_SC000005            -1   PROFIT_SC000005           -10
    L_SC000005  ROW2_SC000005             1   PROFIT_SC000005            -5
    S_SC000005  ROW3_SC000005            -1   ROW4_SC000005            -1
    S_SC000005  PROFIT_SC000005            60
    Y_SC000005  ROW5_SC000005             1   PROFIT_SC000005           -15
    E_SC000005  ROW5_SC000005             1   PROFIT_SC000005           -10
    Z_SC000005       OBJ         -0.03
    Z_SC000005  PROFIT_SC000005            -1
RHS
    RHS1      ROW1_SC000000             1
    RHS1      ROW2_SC000000            90
    RHS1      ROW1_SC000001             1
    RHS1      ROW2_SC000001            90
    RHS1      ROW1_SC000002             1
    RHS1      ROW2_SC000002            60
    RHS1      ROW1_SC000003             1
    RHS1      ROW2_SC000003            60
    RHS1      ROW1_SC000004             1
    RHS1      ROW2_SC000004            30
    RHS1      ROW1_SC000005             1
    RHS1      ROW2_SC000005            30
BOUNDS
ENDATA
